Sr5 Ca3 Ti2 Fe6 O22
1.0
   7.7000000000000002    0.0000000000000000    0.0000000000000000
   0.0000000000000000    7.7000000000000002    0.0000000000000000
   0.0000000000000000    0.0000000000000000    7.7000000000000002
Sr Ca Fe Ti O
5 3 6 2 22
direct
   0.0000000000000000    0.0000000000000000    0.0000000000000000 Sr
   0.5000000000000000    0.0000000000000000    0.0000000000000000 Sr
   0.0000000000000000    0.5000000000000000    0.0000000000000000 Sr
   0.0000000000000000    0.0000000000000000    0.5000000000000000 Sr
   0.5000000000000000    0.5000000000000000    0.0000000000000000 Sr
   0.5000000000000000    0.0000000000000000    0.5000000000000000 Ca
   0.0000000000000000    0.5000000000000000    0.5000000000000000 Ca
   0.5000000000000000    0.5000000000000000    0.5000000000000000 Ca
   0.2500000000000000    0.2500000000000000    0.2500000000000000 Fe
   0.7500000000000000    0.2500000000000000    0.2500000000000000 Fe
   0.2500000000000000    0.7500000000000000    0.2500000000000000 Fe
   0.2500000000000000    0.2500000000000000    0.7500000000000000 Fe
   0.7500000000000000    0.7500000000000000    0.2500000000000000 Fe
   0.7500000000000000    0.2500000000000000    0.7500000000000000 Fe
   0.2500000000000000    0.7500000000000000    0.7500000000000000 Ti
   0.7500000000000000    0.7500000000000000    0.7500000000000000 Ti
   0.5000000000000000    0.0000000000000000    0.0000000000000000 O
   0.0000000000000000    0.5000000000000000    0.0000000000000000 O
   0.0000000000000000    0.0000000000000000    0.5000000000000000 O
   0.5000000000000000    0.5000000000000000    0.0000000000000000 O
   0.5000000000000000    0.0000000000000000    0.5000000000000000 O
   0.0000000000000000    0.5000000000000000    0.5000000000000000 O
   0.2500000000000000    0.0000000000000000    0.0000000000000000 O
   0.0000000000000000    0.2500000000000000    0.0000000000000000 O
   0.0000000000000000    0.0000000000000000    0.2500000000000000 O
   0.7500000000000000    0.0000000000000000    0.0000000000000000 O
   0.0000000000000000    0.7500000000000000    0.0000000000000000 O
   0.0000000000000000    0.0000000000000000    0.7500000000000000 O
   0.5000000000000000    0.2500000000000000    0.0000000000000000 O
   0.5000000000000000    0.0000000000000000    0.2500000000000000 O
   0.2500000000000000    0.5000000000000000    0.0000000000000000 O
   0.0000000000000000    0.5000000000000000    0.2500000000000000 O
   0.2500000000000000    0.0000000000000000    0.5000000000000000 O
   0.0000000000000000    0.2500000000000000    0.5000000000000000 O
   0.5000000000000000    0.5000000000000000    0.2500000000000000 O
   0.5000000000000000    0.2500000000000000    0.5000000000000000 O
   0.2500000000000000    0.5000000000000000    0.5000000000000000 O
   0.2500000000000000    0.2500000000000000    0.5000000000000000 O
