#This INCAR file was generated by VASPTEMPLATES Code provided by Zicong
#https://gitee.com/xczics/vasptemplate#
#The POTCAR used in this calculation are:
#	Sr	VASPTemplates/potpaw54/potpaw_PBE/PAW_GGA_PBE/Sr_sv/POTCAR
#	Ca	VASPTemplates/potpaw54/potpaw_PBE/PAW_GGA_PBE/Ca_sv/POTCAR
#	Fe	VASPTemplates/potpaw54/potpaw_PBE/PAW_GGA_PBE/Fe_pv/POTCAR
#	O	VASPTemplates/potpaw54/potpaw_PBE/PAW_GGA_PBE/O/POTCAR
#Generated date:2025/04/25-20:56:35
#---------------------------------------#

#------------------------#
# electronic settings
ISTART = 0              # Start from scratch
ISPIN  = 2              # Spin-polarized (important for FM phase and d-electrons on Fe, Co, Cu, Mn, Ni)
LREAL  = .FALSE.        # No real-space projection (better accuracy)
ENCUT  = 450            # Energy cutoff as specified
PREC   = Accurate       # Accurate precision
LWAVE  = .FALSE.
LCHARG = .FALSE.
ADDGRID= .TRUE.         # Helps GGA convergence
LASPH  = .TRUE.         # Non-spherical contributions
GGA    = PE             # PBE functional
#------------------------#
# Hubbard U
LDAU     = .TRUE.
LDAUTYPE = 2
LDAUL    = -1 -1 2 -1       # d-orbital for Fe and Ti only
LDAUU    = 0  0  4 0        # Ueff = 4 eV for Fe
LDAUJ    = 0  0  0 0
#------------------------#
# Relaxation
IBRION = -1
#ISIF   = 3               # Relax both atomic positions, cell shape, and volume
NSW    = 0
EDIFF  = 1E-5             # SCF convergence criterion (energy)
EDIFFG = -0.01            # Force convergence criterion (0.01 eV/Å)
#------------------------#
# Electronic
ISMEAR = 0               # Gaussian smearing
SIGMA  = 0.1             # Smearing width
NELM   = 2             # Max electronic steps
#------------------------#
# Magnetic moment
MAGMOM = 8*0.0 8*4.0 24*0.0 # Initial magnetic moments,与上面元素对应
#------------------------#
# Parallel settings
NCORE = 4
