Automatic mesh
0
Gamma #这部分不用修改
2 2 2
0 0 0
