Sr5 Ca3 Fe8 O24
1.0
   7.6576338200000000    0.0000000000000000    0.0000000000000005
  -0.0000000000000005    7.6576255000000000    0.0000000000000005
   0.0000000000000000    0.0000000000000000    7.6576234400000001
Sr Ca Fe O
5 3 8 24
direct
   0.2499995000000000    0.2499995000000000    0.2499995000000000 Sr
   0.2499995000000000    0.2499995000000000    0.7499995000000000 Sr
   0.2499995000000000    0.7499995000000000    0.2499995000000000 Sr
   0.2499995000000000    0.7499995000000000    0.7499995000000002 Sr
   0.7499995000000000    0.2499995000000000    0.2499995000000000 Sr
   0.7499995000000000    0.2499995000000000    0.7499995000000002 Ca
   0.7499994999999999    0.7499995000000000    0.2499995000000000 Ca
   0.7499994999999999    0.7499995000000000    0.7499995000000002 Ca
   0.0000000000000000    0.0000000000000000    0.0000000000000000 Fe
   0.0000000000000000    0.0000000000000000    0.5000000000000000 Fe
   0.0000000000000000    0.5000000000000000    0.0000000000000000 Fe
   0.0000000000000000    0.5000000000000000    0.5000000000000001 Fe
   0.5000000000000000    0.0000000000000000    0.0000000000000000 Fe
   0.5000000000000000    0.0000000000000000    0.5000000000000001 Fe
   0.5000000000000000    0.5000000000000000    0.0000000000000000 Fe
   0.5000000000000000    0.5000000000000000    0.5000000000000001 Fe
   0.2499995000000000    0.0000000000000000    0.0000000000000000 O
   0.2499995000000000    0.0000000000000000    0.5000000000000000 O
   0.2499995000000000    0.5000000000000000    0.0000000000000000 O
   0.2499995000000000    0.5000000000000000    0.5000000000000001 O
   0.7499995000000000    0.0000000000000000    0.0000000000000000 O
   0.7499995000000000    0.0000000000000000    0.5000000000000000 O
   0.7499994999999999    0.5000000000000000    0.0000000000000000 O
   0.7499994999999999    0.5000000000000000    0.4999999999999999 O
   0.0000000000000000    0.2499995000000000    0.0000000000000000 O
   0.0000000000000000    0.2499995000000000    0.5000000000000000 O
   0.0000000000000000    0.7499995000000000    0.0000000000000000 O
   0.0000000000000000    0.7499995000000000    0.5000000000000001 O
   0.5000000000000000    0.2499995000000000    0.0000000000000000 O
   0.5000000000000000    0.2499995000000000    0.5000000000000001 O
   0.5000000000000000    0.7499995000000000    0.0000000000000000 O
   0.5000000000000000    0.7499995000000000    0.5000000000000001 O
   0.0000000000000000    0.0000000000000000    0.2499995000000000 O
   0.0000000000000000    0.0000000000000000    0.7499995000000000 O
   0.0000000000000000    0.5000000000000000    0.2499995000000000 O
   0.0000000000000000    0.5000000000000000    0.7499995000000000 O
   0.5000000000000000    0.0000000000000000    0.2499995000000000 O
   0.5000000000000000    0.0000000000000000    0.7499995000000000 O
   0.5000000000000000    0.5000000000000000    0.2499995000000000 O
   0.5000000000000000    0.5000000000000000    0.7499995000000000 O
